benchmarks/VRPTW/TSPTW/solution/n60w60.004.txt.solution
1 50 35 46 42 24 28 3 32 13 7 37 38 12 55 6 15 51 20 2 14 27 5 34 54 57 19 25 33 59 43 53 9 4 44 41 47 23 16 45 48 18 22 30 21 52 49 26 8 11 40 58 56 10 36 31 39 17 61 60 29 
571
